
******************************************************************************
This program contains Ipopt, a library for large-scale nonlinear optimization.
 Ipopt is released as open source code under the Eclipse Public License (EPL).
         For more information visit http://projects.coin-or.org/Ipopt
******************************************************************************

This is Ipopt version 3.12.6, running with linear solver ma57.

Number of nonzeros in equality constraint Jacobian...:    20250
Number of nonzeros in inequality constraint Jacobian.:        0
Number of nonzeros in Lagrangian Hessian.............:     8406

Total number of variables............................:     2763
                     variables with only lower bounds:        0
                variables with lower and upper bounds:        0
                     variables with only upper bounds:        0
Total number of equality constraints.................:     2763
Total number of inequality constraints...............:        0
        inequality constraints with only lower bounds:        0
   inequality constraints with lower and upper bounds:        0
        inequality constraints with only upper bounds:        0

iter    objective    inf_pr   inf_du lg(mu)  ||d||  lg(rg) alpha_du alpha_pr  ls
   0  0.0000000e+00 4.50e+02 0.00e+00  -1.0 0.00e+00    -  0.00e+00 0.00e+00   0
Reallocating memory for MA57: lfact (1118429)
Reallocating memory for MA57: lfact (1239871)
   1  0.0000000e+00 9.33e+00 3.67e+01  -1.0 5.50e+01  -2.0 1.00e+00 1.00e+00h  1
   2  0.0000000e+00 3.83e-02 4.68e+00  -1.0 7.71e+00  -1.6 1.00e+00 1.00e+00h  1
   3  0.0000000e+00 4.53e-05 2.45e-02  -1.0 3.11e-01  -1.1 1.00e+00 1.00e+00h  1
   4  0.0000000e+00 9.76e-09 6.19e-06  -3.8 2.61e-04  -1.6 1.00e+00 1.00e+00h  1
Cannot recompute multipliers for feasibility problem.  Error in eq_mult_calculator

Number of Iterations....: 4

                                   (scaled)                 (unscaled)
Objective...............:   0.0000000000000000e+00    0.0000000000000000e+00
Dual infeasibility......:   6.1900565776432798e-06    6.1900565776432798e-06
Constraint violation....:   5.3197317911875101e-09    9.7581135116708850e-09
Complementarity.........:   0.0000000000000000e+00    0.0000000000000000e+00
Overall NLP error.......:   5.3197317911875101e-09    6.1900565776432798e-06


Number of objective function evaluations             = 5
Number of objective gradient evaluations             = 5
Number of equality constraint evaluations            = 5
Number of inequality constraint evaluations          = 0
Number of equality constraint Jacobian evaluations   = 5
Number of inequality constraint Jacobian evaluations = 0
Number of Lagrangian Hessian evaluations             = 4
Total CPU secs in IPOPT (w/o function evaluations)   =      0.973
Total CPU secs in NLP function evaluations           =      0.010

EXIT: Optimal Solution Found.
Note: The following floating-point exceptions are signalling: IEEE_OVERFLOW_FLAG

************************ CUTEst statistics ************************


 Package used            :  IPOPT
 Problem                 :  FLOSP2TL  
 # variables             =            2883
 # constraints           =            2763
 # objective functions   =        0.1100000E+02
 # objective gradients   =        0.6000000E+01
 # objective Hessians    =        0.5000000E+01
 # Hessian-vector prdct  =        0.0000000E+00
 # constraints functions =        0.1200000E+02
 # constraints gradients =        0.7000000E+01
 # constraints Hessians  =        0.5000000E+01
 Exit code               =               0
 Final f                 =   0.0000000E+00
 Set up time             =            0.07 seconds
 Solve time              =            2.65 seconds


******************************************************************

System Time =       0.6639999747 s.
